(set-logic HORN)
(set-info :source |
    Benchmark: C_VC
    Output by Princess (http://www.philipp.ruemmer.org/princess.shtml)
|)
(set-info :status unknown)
(declare-fun inv_main11 (Int Int Int) Bool)
(declare-fun inv_main5 (Int Int Int) Bool)
(declare-fun inv_main6 (Int Int Int) Bool)
(assert (forall ((var0 Int)) (inv_main5 var0 0 10 ) ) )
(assert (forall ((var0 Int)) (forall ((var1 Int)) (forall ((var2 Int)) (or (not (and (inv_main5 var2 var1 var0 ) (not (<= 0 (+ 10 (* (- 1) var1 ) ) ) ) ) ) (inv_main6 var2 var1 var0 ) ) ) ) ) )
(assert (forall ((var0 Int)) (forall ((var1 Int)) (forall ((var2 Int)) (or (not (and (inv_main6 var2 var1 var0 ) (not (<= 0 var0 ) ) ) ) (inv_main11 var2 var1 var0 ) ) ) ) ) )
(assert (forall ((var0 Int)) (forall ((var1 Int)) (forall ((var2 Int)) (or (not (and (inv_main5 var2 var1 var0 ) (and (= var1 var2 ) (<= 0 (+ 10 (* (- 1) var1 ) ) ) ) ) ) (inv_main6 var2 var1 var0 ) ) ) ) ) )
(assert (forall ((var0 Int)) (forall ((var1 Int)) (forall ((var2 Int)) (or (not (and (inv_main5 var2 var1 var0 ) (and (not (= var1 var2 ) ) (<= 0 (+ 10 (* (- 1) var1 ) ) ) ) ) ) (inv_main5 var2 (+ var1 1 ) var0 ) ) ) ) ) )
(assert (forall ((var0 Int)) (forall ((var1 Int)) (forall ((var2 Int)) (or (not (and (inv_main6 var2 var1 var0 ) (and (= var0 (+ 10 (* (- 1) var2 ) ) ) (<= 0 var0 ) ) ) ) (inv_main11 var2 var1 var0 ) ) ) ) ) )
(assert (forall ((var0 Int)) (forall ((var1 Int)) (forall ((var2 Int)) (or (not (and (inv_main6 var2 var1 var0 ) (and (not (= var0 (+ 10 (* (- 1) var2 ) ) ) ) (<= 0 var0 ) ) ) ) (inv_main6 var2 var1 (+ var0 (- 1) ) ) ) ) ) ) )
(assert (forall ((var0 Int)) (forall ((var1 Int)) (forall ((var2 Int)) (not (and (inv_main11 var2 var1 var0 ) (not (= var1 (+ 10 (* (- 1) var0 ) ) ) ) ) ) ) ) ) )
(check-sat)
